
n_res = 8;
rcap = [28, 29, 31, 32, 1176, 1305, 1327, 1348];
rtype = [1, 1, 1, 1, 2, 2, 2, 2];
n_tasks = 100;
modes =  [{1, 2, 3, 4, 5, 6, 7, 8, 9}, {10, 11, 12, 13, 14, 15, 16, 17, 18}, {19, 20, 21, 22, 23, 24, 25, 26, 27}, {28, 29, 30, 31, 32, 33, 34, 35, 36}, {37, 38, 39, 40, 41, 42, 43, 44, 45}, {46, 47, 48, 49, 50, 51, 52, 53, 54}, {55, 56, 57, 58, 59, 60, 61, 62, 63}, {64, 65, 66, 67, 68, 69, 70, 71, 72}, {73, 74, 75, 76, 77, 78, 79, 80, 81}, {82, 83, 84, 85, 86, 87, 88, 89, 90}, {91, 92, 93, 94, 95, 96, 97, 98, 99}, {100, 101, 102, 103, 104, 105, 106, 107, 108}, {109, 110, 111, 112, 113, 114, 115, 116, 117}, {118, 119, 120, 121, 122, 123, 124, 125, 126}, {127, 128, 129, 130, 131, 132, 133, 134, 135}, {136, 137, 138, 139, 140, 141, 142, 143, 144}, {145, 146, 147, 148, 149, 150, 151, 152, 153}, {154, 155, 156, 157, 158, 159, 160, 161, 162}, {163, 164, 165, 166, 167, 168, 169, 170, 171}, {172, 173, 174, 175, 176, 177, 178, 179, 180}, {181, 182, 183, 184, 185, 186, 187, 188, 189}, {190, 191, 192, 193, 194, 195, 196, 197, 198}, {199, 200, 201, 202, 203, 204, 205, 206, 207}, {208, 209, 210, 211, 212, 213, 214, 215, 216}, {217, 218, 219, 220, 221, 222, 223, 224, 225}, {226, 227, 228, 229, 230, 231, 232, 233, 234}, {235, 236, 237, 238, 239, 240, 241, 242, 243}, {244, 245, 246, 247, 248, 249, 250, 251, 252}, {253, 254, 255, 256, 257, 258, 259, 260, 261}, {262, 263, 264, 265, 266, 267, 268, 269, 270}, {271, 272, 273, 274, 275, 276, 277, 278, 279}, {280, 281, 282, 283, 284, 285, 286, 287, 288}, {289, 290, 291, 292, 293, 294, 295, 296, 297}, {298, 299, 300, 301, 302, 303, 304, 305, 306}, {307, 308, 309, 310, 311, 312, 313, 314, 315}, {316, 317, 318, 319, 320, 321, 322, 323, 324}, {325, 326, 327, 328, 329, 330, 331, 332, 333}, {334, 335, 336, 337, 338, 339, 340, 341, 342}, {343, 344, 345, 346, 347, 348, 349, 350, 351}, {352, 353, 354, 355, 356, 357, 358, 359, 360}, {361, 362, 363, 364, 365, 366, 367, 368, 369}, {370, 371, 372, 373, 374, 375, 376, 377, 378}, {379, 380, 381, 382, 383, 384, 385, 386, 387}, {388, 389, 390, 391, 392, 393, 394, 395, 396}, {397, 398, 399, 400, 401, 402, 403, 404, 405}, {406, 407, 408, 409, 410, 411, 412, 413, 414}, {415, 416, 417, 418, 419, 420, 421, 422, 423}, {424, 425, 426, 427, 428, 429, 430, 431, 432}, {433, 434, 435, 436, 437, 438, 439, 440, 441}, {442, 443, 444, 445, 446, 447, 448, 449, 450}, {451, 452, 453, 454, 455, 456, 457, 458, 459}, {460, 461, 462, 463, 464, 465, 466, 467, 468}, {469, 470, 471, 472, 473, 474, 475, 476, 477}, {478, 479, 480, 481, 482, 483, 484, 485, 486}, {487, 488, 489, 490, 491, 492, 493, 494, 495}, {496, 497, 498, 499, 500, 501, 502, 503, 504}, {505, 506, 507, 508, 509, 510, 511, 512, 513}, {514, 515, 516, 517, 518, 519, 520, 521, 522}, {523, 524, 525, 526, 527, 528, 529, 530, 531}, {532, 533, 534, 535, 536, 537, 538, 539, 540}, {541, 542, 543, 544, 545, 546, 547, 548, 549}, {550, 551, 552, 553, 554, 555, 556, 557, 558}, {559, 560, 561, 562, 563, 564, 565, 566, 567}, {568, 569, 570, 571, 572, 573, 574, 575, 576}, {577, 578, 579, 580, 581, 582, 583, 584, 585}, {586, 587, 588, 589, 590, 591, 592, 593, 594}, {595, 596, 597, 598, 599, 600, 601, 602, 603}, {604, 605, 606, 607, 608, 609, 610, 611, 612}, {613, 614, 615, 616, 617, 618, 619, 620, 621}, {622, 623, 624, 625, 626, 627, 628, 629, 630}, {631, 632, 633, 634, 635, 636, 637, 638, 639}, {640, 641, 642, 643, 644, 645, 646, 647, 648}, {649, 650, 651, 652, 653, 654, 655, 656, 657}, {658, 659, 660, 661, 662, 663, 664, 665, 666}, {667, 668, 669, 670, 671, 672, 673, 674, 675}, {676, 677, 678, 679, 680, 681, 682, 683, 684}, {685, 686, 687, 688, 689, 690, 691, 692, 693}, {694, 695, 696, 697, 698, 699, 700, 701, 702}, {703, 704, 705, 706, 707, 708, 709, 710, 711}, {712, 713, 714, 715, 716, 717, 718, 719, 720}, {721, 722, 723, 724, 725, 726, 727, 728, 729}, {730, 731, 732, 733, 734, 735, 736, 737, 738}, {739, 740, 741, 742, 743, 744, 745, 746, 747}, {748, 749, 750, 751, 752, 753, 754, 755, 756}, {757, 758, 759, 760, 761, 762, 763, 764, 765}, {766, 767, 768, 769, 770, 771, 772, 773, 774}, {775, 776, 777, 778, 779, 780, 781, 782, 783}, {784, 785, 786, 787, 788, 789, 790, 791, 792}, {793, 794, 795, 796, 797, 798, 799, 800, 801}, {802, 803, 804, 805, 806, 807, 808, 809, 810}, {811, 812, 813, 814, 815, 816, 817, 818, 819}, {820, 821, 822, 823, 824, 825, 826, 827, 828}, {829, 830, 831, 832, 833, 834, 835, 836, 837}, {838, 839, 840, 841, 842, 843, 844, 845, 846}, {847, 848, 849, 850, 851, 852, 853, 854, 855}, {856, 857, 858, 859, 860, 861, 862, 863, 864}, {865, 866, 867, 868, 869, 870, 871, 872, 873}, {874, 875, 876, 877, 878, 879, 880, 881, 882}, {883, 884, 885, 886, 887, 888, 889, 890, 891}, {892, 893, 894, 895, 896, 897, 898, 899, 900}];
succ =  [{100, 98, 72, 70, 69, 66, 64, 62, 59, 58, 55, 51, 47, 42, 41, 38, 26}, {98, 96, 76, 73, 69, 66, 63, 60, 57, 55, 53, 51, 43, 41, 38, 26}, {100, 98, 97, 75, 74, 73, 70, 69, 64, 61, 56, 52, 47, 44, 41, 38, 25}, {97, 96, 94, 93, 92, 76, 74, 72, 70, 69, 66, 65, 63, 58, 52, 51, 47, 42, 41, 33}, {98, 97, 94, 93, 73, 66, 62, 61, 56, 52, 51, 47, 40, 21}, {99, 97, 93, 91, 89, 76, 73, 68, 64, 63, 54, 53, 52, 20}, {100, 99, 97, 96, 95, 94, 74, 72, 71, 70, 68, 61, 59, 58, 52, 50, 38, 35}, {99, 98, 94, 76, 75, 74, 73, 72, 70, 68, 64, 63, 61, 58, 56, 53, 52, 45}, {98, 94, 73, 68, 66, 64, 60, 56, 54, 46, 44, 24}, {94, 93, 91, 73, 72, 70, 68, 66, 65, 58, 56, 52, 51, 46, 33}, {98, 97, 94, 92, 91, 90, 76, 73, 64, 59, 58, 56, 54, 53, 52, 51}, {98, 97, 95, 94, 93, 92, 74, 73, 72, 70, 68, 61, 59, 53, 35}, {98, 96, 93, 91, 90, 88, 86, 80, 76, 74, 72, 70, 69, 68, 64, 59, 58, 52, 50}, {99, 98, 96, 94, 92, 90, 88, 85, 81, 80, 76, 69, 68, 62, 61, 60, 59, 58, 43}, {99, 98, 97, 93, 92, 91, 90, 86, 75, 74, 73, 72, 71, 68, 64, 58, 54, 52}, {98, 95, 92, 86, 72, 71, 58, 52, 45, 41}, {96, 89, 86, 83, 81, 74, 70, 64, 63, 61, 60, 57, 45}, {99, 94, 93, 91, 90, 73, 72, 69, 68, 60, 50, 43}, {100, 95, 93, 91, 90, 88, 80, 75, 72, 70, 69, 52, 43}, {98, 92, 74, 72, 70, 69, 65, 57, 56, 33}, {96, 92, 88, 71, 70, 68, 64, 63, 58, 33}, {99, 92, 91, 90, 86, 84, 68, 58, 34}, {96, 95, 94, 92, 91, 90, 88, 87, 85, 81, 75, 73, 70, 64, 60, 58}, {96, 95, 93, 92, 90, 88, 86, 85, 84, 80, 78, 72, 69, 61, 58}, {96, 95, 94, 93, 90, 89, 86, 83, 80, 78, 71, 68, 65, 50}, {97, 94, 93, 89, 68, 65, 61, 56, 50}, {98, 96, 95, 94, 93, 92, 89, 87, 86, 84, 83, 82, 70, 67, 64, 53}, {94, 92, 91, 90, 89, 88, 86, 85, 84, 83, 82, 72, 71, 69, 68, 67, 64}, {100, 96, 91, 90, 89, 86, 85, 84, 83, 82, 81, 80, 78, 74, 71, 70, 69, 68, 67}, {93, 91, 90, 88, 86, 83, 73, 71, 70, 68, 67, 52}, {99, 90, 88, 87, 86, 84, 80, 71, 62, 52}, {97, 96, 94, 93, 91, 89, 88, 87, 84, 80, 79, 78, 68, 67}, {95, 90, 87, 86, 85, 84, 83, 81, 80, 78, 67, 60}, {96, 95, 88, 87, 85, 81, 80, 78, 70, 67, 60}, {90, 87, 84, 83, 81, 69, 64, 56}, {88, 82, 80, 74, 72, 71, 68, 67, 64}, {91, 90, 86, 68, 62, 59}, {93, 92, 89, 88, 87, 86, 85, 84, 82, 67}, {98, 90, 88, 87, 86, 83, 81, 77, 64}, {95, 89, 87, 86, 85, 84, 82, 81, 80, 77}, {99, 91, 90, 89, 88, 87, 83, 80, 67}, {91, 86, 85, 83, 82, 80, 79, 78, 71}, {89, 86, 84, 83, 71, 67, 64}, {96, 91, 90, 88, 86, 84, 80, 79, 78}, {97, 93, 90, 88, 84, 80, 69, 67}, {97, 87, 83, 81, 80, 79, 78, 67}, {89, 80, 78, 68, 67, 60}, {99, 92, 84, 80, 79, 78, 67}, {89, 84, 83, 78, 60}, {92, 87, 85, 84, 81, 67}, {88, 82, 81, 80, 78, 75}, {85, 81, 78, 60}, {88, 81, 80, 79, 78, 77}, {95, 85, 84, 81, 79, 77}, {85, 84, 82, 78, 77}, {86, 85, 80, 78}, {94, 87, 85, 77}, {89, 83, 67}, {87, 78, 67}, {82, 79, 77}, {91, 82, 79}, {89, 83, 82}, {87, 67}, {79, 78}, {88, 79}, {87, 81}, {77}, {77}, {77}, {77}, {77}, {81}, {80}, {77}, {83}, {77}, {}, {}, {}, {}, {}, {}, {}, {}, {}, {}, {}, {}, {}, {}, {}, {}, {}, {}, {}, {}, {}, {}, {}, {}];
n_opt = 900;
dur = [3, 5, 8, 13, 18, 19, 22, 27, 28, 2, 4, 9, 13, 19, 20, 21, 22, 24, 4, 8, 11, 12, 14, 17, 21, 27, 30, 2, 5, 6, 7, 11, 16, 19, 26, 28, 1, 9, 15, 17, 18, 19, 20, 26, 29, 1, 2, 3, 8, 9, 10, 17, 21, 27, 5, 6, 12, 13, 18, 25, 26, 27, 28, 2, 4, 10, 13, 15, 16, 24, 25, 26, 2, 3, 9, 11, 12, 26, 27, 28, 29, 1, 19, 22, 23, 26, 27, 28, 29, 30, 2, 10, 13, 14, 15, 22, 26, 27, 29, 2, 3, 4, 6, 15, 19, 26, 28, 29, 2, 5, 6, 7, 11, 17, 22, 25, 27, 4, 10, 11, 12, 15, 20, 26, 27, 30, 3, 5, 7, 13, 23, 24, 26, 27, 29, 5, 6, 9, 10, 14, 15, 19, 27, 30, 1, 2, 4, 5, 6, 16, 22, 23, 24, 2, 4, 5, 9, 15, 21, 25, 26, 29, 6, 7, 8, 11, 17, 19, 25, 26, 27, 7, 9, 12, 17, 18, 22, 24, 25, 30, 5, 6, 8, 9, 10, 12, 13, 14, 19, 4, 7, 11, 12, 14, 19, 22, 24, 26, 7, 14, 15, 17, 20, 21, 25, 26, 30, 4, 8, 9, 10, 15, 16, 18, 23, 24, 1, 2, 4, 12, 21, 22, 24, 29, 30, 3, 12, 13, 14, 15, 21, 25, 26, 27, 1, 6, 9, 10, 14, 15, 16, 25, 28, 3, 6, 7, 8, 9, 13, 18, 23, 28, 1, 2, 3, 8, 12, 13, 15, 19, 26, 4, 8, 10, 13, 22, 23, 24, 25, 28, 2, 9, 14, 19, 24, 25, 26, 28, 29, 3, 4, 5, 7, 8, 11, 22, 28, 29, 2, 3, 6, 7, 13, 15, 24, 25, 27, 1, 2, 7, 8, 9, 20, 25, 29, 30, 1, 2, 3, 5, 8, 13, 14, 15, 16, 2, 6, 7, 10, 14, 16, 21, 28, 30, 3, 4, 5, 7, 8, 15, 26, 29, 30, 1, 5, 11, 12, 15, 18, 20, 28, 30, 2, 4, 7, 8, 10, 11, 18, 20, 26, 4, 5, 11, 13, 18, 19, 20, 21, 28, 2, 3, 4, 7, 8, 12, 14, 19, 26, 10, 15, 19, 20, 21, 22, 23, 24, 25, 1, 3, 8, 12, 14, 16, 17, 19, 20, 4, 7, 9, 11, 13, 14, 15, 23, 28, 1, 2, 3, 7, 8, 25, 26, 27, 29, 1, 6, 13, 16, 17, 18, 19, 25, 28, 5, 7, 10, 11, 15, 20, 23, 28, 29, 9, 10, 11, 15, 20, 22, 28, 29, 30, 2, 3, 5, 8, 14, 17, 20, 24, 25, 7, 8, 10, 11, 14, 16, 21, 24, 26, 7, 8, 11, 14, 15, 16, 17, 20, 24, 2, 7, 14, 15, 21, 22, 24, 28, 30, 2, 3, 4, 5, 15, 19, 20, 27, 28, 2, 7, 8, 11, 15, 21, 27, 29, 30, 1, 6, 7, 9, 10, 19, 26, 28, 29, 1, 2, 5, 8, 9, 10, 17, 18, 30, 2, 7, 9, 10, 13, 15, 22, 26, 28, 2, 4, 6, 7, 11, 12, 24, 26, 29, 2, 4, 7, 9, 12, 16, 17, 21, 30, 7, 9, 10, 11, 12, 14, 19, 20, 26, 1, 11, 12, 16, 18, 19, 26, 27, 28, 3, 12, 15, 16, 19, 20, 27, 28, 29, 5, 6, 10, 11, 13, 15, 19, 20, 21, 2, 8, 11, 13, 15, 16, 18, 24, 30, 2, 3, 6, 14, 17, 20, 21, 22, 24, 3, 4, 6, 8, 11, 18, 24, 28, 30, 2, 9, 10, 11, 13, 17, 22, 29, 30, 13, 14, 15, 16, 20, 22, 23, 24, 30, 4, 5, 6, 12, 13, 14, 15, 24, 25, 2, 6, 7, 8, 9, 10, 13, 19, 27, 3, 14, 17, 18, 19, 21, 29, 29, 30, 2, 4, 5, 6, 7, 9, 11, 20, 28, 1, 5, 8, 10, 12, 14, 23, 24, 29, 1, 5, 8, 11, 15, 18, 19, 23, 24, 2, 5, 9, 10, 11, 13, 14, 19, 27, 3, 11, 14, 23, 24, 26, 27, 28, 29, 6, 9, 11, 15, 16, 18, 19, 20, 26, 1, 2, 10, 15, 18, 19, 20, 24, 26, 6, 7, 13, 19, 20, 21, 24, 27, 28, 3, 4, 19, 23, 24, 25, 27, 29, 30, 5, 8, 12, 13, 15, 23, 24, 25, 27, 1, 3, 6, 8, 14, 15, 22, 24, 29, 4, 5, 6, 7, 10, 12, 13, 28, 29, 4, 11, 12, 15, 17, 18, 23, 24, 25, 9, 11, 12, 13, 15, 23, 24, 25, 29, 4, 7, 9, 11, 16, 20, 22, 23, 24, 1, 2, 12, 15, 18, 19, 25, 27, 29, 2, 3, 9, 10, 14, 16, 22, 26, 30, 1, 5, 10, 11, 14, 18, 22, 27, 29, 10, 13, 19, 21, 23, 26, 28, 29, 30, 1, 4, 5, 7, 8, 14, 15, 25, 27, 1, 9, 10, 11, 12, 13, 16, 28, 30, 2, 5, 7, 8, 13, 17, 19, 22, 25, 10, 12, 16, 17, 21, 22, 24, 28, 29, 1, 7, 11, 13, 16, 17, 19, 23, 30, 2, 7, 11, 12, 13, 14, 15, 27, 30, 1, 3, 5, 10, 25, 26, 27, 28, 29, 3, 4, 5, 6, 9, 18, 19, 25, 28, 6, 9, 12, 13, 14, 16, 18, 19, 20, 1, 4, 5, 7, 14, 16, 18, 19, 22];
rreq = [|2, 2, 2, 2, 1, 1, 1, 1, 1, 3, 3, 3, 3, 3, 3, 3, 3, 3, 4, 4, 3, 3, 2, 2, 1, 1, 1, 2, 2, 2, 2, 2, 2, 2, 2, 2, 3, 3, 3, 3, 3, 3, 3, 3, 3, 3, 3, 3, 3, 2, 2, 1, 1, 1, 2, 1, 1, 1, 1, 1, 1, 1, 1, 4, 4, 4, 4, 4, 4, 4, 4, 4, 1, 1, 1, 1, 1, 1, 1, 1, 1, 4, 4, 4, 4, 4, 4, 4, 4, 4, 5, 4, 4, 3, 3, 3, 3, 2, 2, 3, 2, 2, 2, 2, 2, 2, 2, 2, 2, 2, 2, 2, 2, 2, 2, 2, 2, 4, 3, 3, 3, 3, 3, 3, 3, 3, 1, 1, 1, 1, 1, 1, 1, 1, 1, 5, 5, 5, 5, 5, 5, 5, 5, 5, 4, 3, 3, 2, 2, 2, 2, 1, 1, 4, 4, 4, 4, 4, 4, 4, 4, 4, 4, 4, 4, 4, 4, 4, 4, 4, 4, 4, 4, 4, 4, 3, 3, 3, 3, 3, 4, 4, 3, 3, 3, 2, 2, 1, 1, 1, 1, 1, 1, 1, 1, 1, 1, 1, 2, 2, 2, 2, 2, 2, 2, 2, 2, 5, 4, 4, 4, 3, 3, 2, 2, 2, 5, 4, 4, 4, 4, 4, 4, 4, 4, 2, 1, 1, 1, 1, 1, 1, 1, 1, 2, 2, 2, 2, 2, 2, 2, 2, 2, 2, 2, 2, 2, 2, 2, 2, 2, 2, 3, 3, 3, 3, 3, 3, 3, 3, 3, 5, 4, 4, 4, 3, 3, 3, 3, 3, 3, 3, 3, 2, 2, 2, 2, 1, 1, 3, 3, 3, 3, 3, 3, 3, 3, 3, 4, 4, 4, 3, 3, 3, 3, 2, 2, 1, 1, 1, 1, 1, 1, 1, 1, 1, 2, 2, 2, 2, 2, 2, 2, 2, 2, 3, 3, 3, 3, 3, 3, 3, 3, 3, 3, 2, 2, 2, 2, 2, 2, 2, 2, 2, 1, 1, 1, 1, 1, 1, 1, 1, 4, 4, 4, 4, 4, 4, 4, 4, 4, 3, 3, 3, 3, 3, 2, 2, 2, 2, 4, 3, 3, 3, 2, 2, 2, 1, 1, 3, 2, 2, 2, 2, 2, 2, 2, 2, 3, 3, 3, 3, 3, 3, 3, 3, 3, 5, 4, 4, 4, 4, 4, 4, 4, 4, 5, 5, 5, 5, 5, 5, 5, 5, 5, 3, 3, 3, 2, 2, 2, 2, 1, 1, 3, 3, 3, 3, 2, 2, 2, 2, 2, 3, 3, 3, 3, 3, 3, 3, 3, 3, 5, 4, 4, 4, 3, 3, 3, 2, 2, 3, 3, 3, 3, 3, 3, 3, 3, 3, 3, 2, 2, 2, 2, 2, 2, 2, 2, 5, 4, 4, 4, 3, 3, 3, 3, 3, 3, 2, 2, 2, 2, 1, 1, 1, 1, 3, 3, 3, 2, 2, 2, 1, 1, 1, 1, 1, 1, 1, 1, 1, 1, 1, 1, 1, 1, 1, 1, 1, 1, 1, 1, 1, 3, 3, 3, 3, 3, 3, 3, 3, 3, 2, 1, 1, 1, 1, 1, 1, 1, 1, 2, 2, 2, 2, 2, 2, 2, 2, 2, 3, 2, 2, 2, 2, 1, 1, 1, 1, 4, 4, 4, 4, 3, 3, 3, 3, 3, 3, 2, 2, 2, 2, 2, 2, 2, 2, 2, 2, 2, 2, 2, 2, 2, 2, 2, 5, 4, 4, 3, 2, 2, 2, 1, 1, 4, 4, 4, 4, 3, 3, 3, 2, 2, 4, 4, 4, 4, 4, 3, 3, 3, 3, 1, 1, 1, 1, 1, 1, 1, 1, 1, 4, 4, 3, 3, 2, 2, 1, 1, 1, 4, 3, 3, 3, 3, 2, 2, 2, 2, 5, 4, 4, 3, 3, 2, 1, 1, 1, 1, 1, 1, 1, 1, 1, 1, 1, 1, 3, 3, 3, 3, 2, 2, 2, 2, 2, 5, 4, 4, 4, 4, 4, 4, 4, 4, 3, 3, 3, 2, 2, 2, 1, 1, 1, 1, 1, 1, 1, 1, 1, 1, 1, 1, 5, 4, 4, 4, 4, 4, 4, 4, 4, 5, 4, 4, 3, 3, 3, 3, 2, 2, 5, 4, 4, 4, 4, 4, 4, 4, 4, 4, 4, 4, 4, 4, 4, 4, 4, 4, 3, 2, 2, 2, 1, 1, 1, 1, 1, 4, 3, 3, 2, 2, 2, 1, 1, 1, 4, 4, 4, 4, 3, 3, 3, 3, 3, 3, 2, 2, 2, 1, 1, 1, 1, 1, 4, 4, 4, 3, 3, 2, 2, 1, 1, 1, 1, 1, 1, 1, 1, 1, 1, 1, 4, 4, 4, 4, 4, 4, 4, 4, 4, 1, 1, 1, 1, 1, 1, 1, 1, 1, 4, 4, 4, 4, 3, 3, 3, 3, 3, 1, 1, 1, 1, 1, 1, 1, 1, 1, 4, 3, 3, 3, 3, 3, 3, 3, 3, 1, 1, 1, 1, 1, 1, 1, 1, 1, 2, 2, 2, 2, 2, 2, 2, 2, 2, 4, 4, 4, 4, 4, 4, 4, 4, 4, 5, 4, 4, 3, 3, 3, 3, 2, 2, 1, 1, 1, 1, 1, 1, 1, 1, 1, 4, 3, 3, 2, 2, 2, 2, 1, 1, 2, 2, 2, 2, 2, 2, 2, 2, 2, 5, 4, 3, 3, 2, 2, 1, 1, 1, 4, 4, 4, 4, 4, 3, 3, 3, 3, 2, 1, 1, 1, 1, 1, 1, 1, 1
 |1, 1, 1, 1, 1, 1, 1, 1, 1, 4, 3, 3, 3, 3, 3, 3, 3, 3, 3, 2, 2, 2, 1, 1, 1, 1, 1, 2, 2, 2, 2, 1, 1, 1, 1, 1, 5, 5, 5, 5, 5, 5, 5, 5, 5, 2, 2, 2, 2, 2, 2, 2, 2, 2, 5, 4, 4, 4, 3, 3, 3, 3, 3, 4, 3, 3, 3, 3, 2, 2, 2, 2, 2, 1, 1, 1, 1, 1, 1, 1, 1, 1, 1, 1, 1, 1, 1, 1, 1, 1, 4, 3, 3, 3, 2, 2, 1, 1, 1, 2, 1, 1, 1, 1, 1, 1, 1, 1, 4, 4, 4, 3, 3, 3, 3, 2, 2, 2, 2, 2, 2, 2, 1, 1, 1, 1, 2, 2, 2, 2, 1, 1, 1, 1, 1, 5, 5, 5, 5, 5, 5, 5, 5, 5, 1, 1, 1, 1, 1, 1, 1, 1, 1, 5, 5, 5, 5, 5, 5, 5, 5, 5, 1, 1, 1, 1, 1, 1, 1, 1, 1, 5, 4, 4, 3, 2, 2, 2, 1, 1, 5, 4, 4, 4, 3, 3, 2, 2, 2, 4, 4, 4, 4, 3, 3, 3, 3, 3, 1, 1, 1, 1, 1, 1, 1, 1, 1, 4, 4, 4, 4, 4, 4, 4, 4, 4, 5, 5, 5, 5, 5, 5, 5, 5, 5, 4, 3, 3, 3, 3, 2, 2, 2, 2, 5, 4, 4, 4, 3, 3, 2, 2, 2, 4, 4, 4, 4, 3, 3, 2, 2, 2, 2, 1, 1, 1, 1, 1, 1, 1, 1, 4, 4, 4, 4, 3, 3, 3, 3, 3, 5, 4, 4, 3, 3, 3, 3, 2, 2, 4, 4, 3, 3, 3, 2, 1, 1, 1, 4, 3, 3, 3, 3, 3, 3, 3, 3, 5, 5, 5, 5, 5, 5, 5, 5, 5, 4, 4, 4, 4, 4, 4, 4, 4, 4, 4, 4, 4, 4, 4, 4, 4, 4, 4, 3, 3, 3, 3, 3, 3, 3, 3, 3, 2, 2, 2, 2, 2, 1, 1, 1, 1, 4, 3, 3, 3, 3, 2, 2, 2, 2, 4, 3, 3, 3, 2, 2, 1, 1, 1, 4, 3, 3, 2, 2, 2, 2, 1, 1, 4, 3, 3, 3, 3, 3, 3, 3, 3, 1, 1, 1, 1, 1, 1, 1, 1, 1, 4, 3, 3, 3, 3, 3, 3, 3, 3, 3, 3, 3, 3, 3, 3, 3, 3, 3, 4, 4, 4, 4, 4, 4, 4, 4, 4, 3, 3, 3, 3, 3, 3, 3, 3, 3, 4, 4, 4, 4, 4, 3, 3, 3, 3, 3, 2, 2, 2, 2, 2, 2, 2, 2, 3, 2, 2, 2, 1, 1, 1, 1, 1, 2, 1, 1, 1, 1, 1, 1, 1, 1, 5, 4, 4, 4, 4, 4, 4, 4, 4, 3, 3, 3, 3, 3, 3, 3, 3, 3, 2, 1, 1, 1, 1, 1, 1, 1, 1, 5, 4, 4, 3, 3, 3, 3, 2, 2, 2, 1, 1, 1, 1, 1, 1, 1, 1, 2, 2, 2, 2, 2, 2, 2, 2, 2, 2, 2, 2, 2, 1, 1, 1, 1, 1, 4, 4, 4, 3, 3, 3, 3, 2, 2, 2, 2, 2, 2, 2, 2, 2, 2, 2, 5, 5, 5, 5, 5, 5, 5, 5, 5, 4, 4, 4, 3, 3, 3, 2, 2, 2, 2, 2, 2, 2, 2, 2, 2, 2, 2, 4, 3, 3, 3, 2, 2, 2, 2, 2, 3, 3, 3, 3, 2, 2, 2, 2, 2, 2, 1, 1, 1, 1, 1, 1, 1, 1, 5, 4, 4, 4, 4, 4, 4, 4, 4, 2, 2, 2, 2, 2, 1, 1, 1, 1, 1, 1, 1, 1, 1, 1, 1, 1, 1, 3, 3, 3, 3, 3, 3, 3, 3, 3, 1, 1, 1, 1, 1, 1, 1, 1, 1, 4, 3, 3, 3, 2, 2, 2, 1, 1, 5, 4, 3, 3, 2, 2, 1, 1, 1, 4, 4, 4, 4, 3, 3, 3, 3, 3, 3, 3, 3, 3, 3, 3, 3, 3, 3, 3, 2, 2, 2, 1, 1, 1, 1, 1, 2, 1, 1, 1, 1, 1, 1, 1, 1, 4, 3, 3, 3, 2, 2, 2, 2, 2, 3, 3, 3, 3, 3, 3, 3, 3, 3, 4, 4, 4, 4, 4, 4, 4, 4, 4, 4, 4, 4, 4, 3, 3, 3, 2, 2, 3, 3, 3, 3, 2, 2, 2, 1, 1, 5, 4, 4, 4, 3, 3, 3, 3, 3, 3, 3, 3, 3, 3, 3, 3, 3, 3, 4, 3, 3, 3, 2, 2, 2, 2, 2, 5, 4, 3, 3, 2, 2, 1, 1, 1, 4, 3, 3, 3, 2, 2, 2, 2, 2, 4, 4, 4, 4, 4, 4, 4, 4, 4, 5, 4, 4, 4, 3, 3, 2, 2, 2, 4, 3, 3, 3, 3, 3, 3, 3, 3, 5, 4, 3, 3, 2, 2, 2, 1, 1, 3, 2, 2, 2, 1, 1, 1, 1, 1, 4, 4, 4, 3, 3, 3, 3, 2, 2, 4, 4, 4, 3, 3, 3, 2, 2, 2, 4, 4, 4, 4, 4, 4, 4, 4, 4, 5, 4, 4, 4, 4, 3, 3, 3, 3, 2, 1, 1, 1, 1, 1, 1, 1, 1, 5, 4, 4, 4, 3, 3, 3, 3, 3, 4, 4, 4, 4, 3, 3, 3, 3, 3, 3, 3, 3, 3, 3, 3, 3, 3, 3
 |4, 4, 4, 4, 4, 3, 3, 3, 3, 5, 4, 4, 4, 3, 3, 3, 3, 3, 5, 4, 4, 4, 4, 4, 4, 4, 4, 3, 3, 3, 3, 3, 3, 3, 3, 3, 3, 2, 2, 2, 2, 2, 2, 2, 2, 3, 2, 2, 2, 2, 2, 2, 2, 2, 5, 5, 5, 5, 5, 5, 5, 5, 5, 3, 3, 3, 2, 2, 2, 1, 1, 1, 2, 2, 2, 2, 2, 2, 2, 2, 2, 4, 4, 4, 4, 4, 3, 3, 3, 3, 5, 4, 4, 4, 3, 3, 3, 3, 3, 5, 4, 3, 3, 2, 2, 1, 1, 1, 5, 4, 4, 4, 4, 4, 4, 4, 4, 4, 3, 3, 3, 2, 2, 2, 1, 1, 5, 4, 4, 4, 3, 3, 3, 3, 3, 5, 5, 5, 5, 5, 5, 5, 5, 5, 2, 1, 1, 1, 1, 1, 1, 1, 1, 1, 1, 1, 1, 1, 1, 1, 1, 1, 3, 3, 3, 3, 3, 3, 3, 3, 3, 4, 4, 4, 4, 4, 4, 4, 4, 4, 2, 2, 2, 2, 2, 1, 1, 1, 1, 2, 2, 2, 2, 2, 2, 2, 2, 2, 3, 3, 3, 3, 3, 3, 3, 3, 3, 5, 5, 5, 5, 5, 5, 5, 5, 5, 5, 4, 4, 4, 3, 3, 3, 3, 3, 4, 4, 4, 4, 3, 3, 3, 3, 3, 5, 4, 4, 4, 3, 3, 3, 3, 3, 4, 4, 4, 4, 3, 3, 3, 3, 3, 3, 2, 2, 2, 2, 1, 1, 1, 1, 4, 4, 4, 4, 4, 4, 4, 4, 4, 1, 1, 1, 1, 1, 1, 1, 1, 1, 2, 1, 1, 1, 1, 1, 1, 1, 1, 2, 1, 1, 1, 1, 1, 1, 1, 1, 4, 4, 4, 4, 3, 3, 2, 2, 2, 5, 4, 4, 4, 4, 4, 4, 4, 4, 3, 2, 2, 2, 2, 2, 2, 2, 2, 2, 2, 2, 2, 1, 1, 1, 1, 1, 3, 2, 2, 2, 2, 2, 2, 2, 2, 1, 1, 1, 1, 1, 1, 1, 1, 1, 2, 2, 2, 2, 2, 2, 2, 2, 2, 5, 4, 4, 3, 2, 2, 2, 1, 1, 4, 4, 4, 4, 3, 3, 3, 2, 2, 4, 3, 3, 3, 3, 2, 2, 2, 2, 3, 3, 3, 3, 3, 3, 3, 3, 3, 4, 4, 4, 4, 4, 3, 3, 3, 3, 5, 4, 4, 3, 3, 3, 2, 2, 2, 4, 4, 4, 4, 4, 3, 3, 3, 3, 5, 4, 4, 4, 3, 3, 3, 2, 2, 4, 4, 4, 4, 3, 3, 3, 3, 3, 1, 1, 1, 1, 1, 1, 1, 1, 1, 4, 4, 4, 4, 3, 3, 3, 2, 2, 3, 3, 3, 3, 3, 2, 2, 2, 2, 5, 4, 4, 3, 2, 2, 2, 1, 1, 4, 3, 3, 2, 2, 2, 1, 1, 1, 3, 3, 3, 3, 2, 2, 1, 1, 1, 4, 4, 4, 4, 4, 4, 4, 4, 4, 4, 4, 4, 4, 3, 3, 3, 3, 3, 5, 4, 3, 3, 2, 2, 2, 1, 1, 4, 4, 4, 4, 4, 4, 4, 4, 4, 5, 4, 4, 4, 4, 4, 4, 4, 4, 3, 3, 3, 3, 2, 2, 2, 1, 1, 5, 4, 4, 3, 3, 2, 2, 1, 1, 2, 2, 2, 2, 2, 1, 1, 1, 1, 4, 4, 4, 4, 4, 4, 4, 4, 4, 4, 4, 4, 4, 4, 4, 4, 4, 4, 4, 4, 4, 4, 4, 3, 3, 3, 3, 4, 3, 3, 3, 3, 2, 2, 2, 2, 4, 3, 3, 3, 3, 3, 3, 3, 3, 4, 4, 4, 4, 4, 4, 4, 4, 4, 2, 2, 2, 2, 2, 2, 2, 2, 2, 5, 4, 4, 4, 4, 4, 4, 4, 4, 3, 3, 3, 3, 3, 3, 3, 3, 3, 3, 3, 3, 2, 2, 2, 1, 1, 1, 2, 2, 2, 2, 1, 1, 1, 1, 1, 3, 3, 3, 3, 3, 3, 3, 3, 3, 4, 4, 4, 4, 3, 3, 3, 3, 3, 2, 1, 1, 1, 1, 1, 1, 1, 1, 3, 3, 3, 3, 3, 3, 3, 3, 3, 4, 4, 4, 4, 3, 3, 2, 2, 2, 4, 4, 4, 4, 4, 4, 4, 4, 4, 4, 4, 4, 4, 4, 4, 4, 4, 4, 5, 5, 5, 5, 5, 5, 5, 5, 5, 3, 2, 2, 2, 1, 1, 1, 1, 1, 2, 2, 2, 2, 2, 2, 2, 2, 2, 2, 2, 2, 2, 1, 1, 1, 1, 1, 4, 4, 4, 4, 4, 3, 3, 3, 3, 4, 4, 3, 3, 3, 2, 1, 1, 1, 3, 3, 3, 3, 3, 2, 2, 2, 2, 2, 2, 2, 2, 2, 2, 2, 2, 2, 3, 3, 3, 3, 2, 2, 2, 2, 2, 4, 4, 3, 3, 3, 2, 1, 1, 1, 4, 3, 3, 3, 3, 3, 3, 3, 3, 1, 1, 1, 1, 1, 1, 1, 1, 1, 4, 3, 3, 3, 3, 3, 3, 3, 3, 3, 2, 2, 2, 2, 2, 2, 2, 2, 5, 4, 4, 4, 3, 3, 2, 2, 2, 5, 4, 4, 3, 2, 2, 1, 1, 1, 1, 1, 1, 1, 1, 1, 1, 1, 1, 3, 2, 2, 2, 2, 2, 2, 2, 2, 4, 3, 3, 3, 2, 2, 2, 1, 1
 |4, 4, 4, 4, 4, 3, 3, 3, 3, 4, 3, 3, 3, 2, 2, 2, 1, 1, 4, 3, 3, 2, 2, 2, 1, 1, 1, 4, 4, 4, 4, 4, 4, 4, 4, 4, 4, 4, 4, 3, 3, 2, 2, 1, 1, 4, 4, 4, 3, 3, 2, 1, 1, 1, 4, 4, 4, 4, 4, 4, 4, 4, 4, 4, 3, 3, 3, 2, 2, 1, 1, 1, 4, 3, 3, 3, 2, 2, 2, 2, 2, 4, 3, 3, 3, 2, 2, 1, 1, 1, 4, 4, 4, 4, 4, 4, 4, 4, 4, 4, 3, 3, 3, 2, 2, 1, 1, 1, 2, 1, 1, 1, 1, 1, 1, 1, 1, 4, 4, 4, 3, 2, 2, 1, 1, 1, 4, 3, 3, 3, 3, 3, 3, 3, 3, 5, 4, 4, 4, 3, 3, 3, 3, 3, 2, 2, 2, 2, 2, 2, 2, 2, 2, 5, 4, 4, 4, 3, 3, 3, 3, 3, 4, 4, 3, 3, 3, 2, 1, 1, 1, 3, 3, 3, 3, 2, 2, 2, 1, 1, 3, 2, 2, 2, 1, 1, 1, 1, 1, 4, 4, 4, 4, 3, 3, 2, 2, 2, 3, 3, 3, 3, 3, 2, 2, 2, 2, 3, 3, 3, 3, 3, 3, 3, 3, 3, 1, 1, 1, 1, 1, 1, 1, 1, 1, 5, 4, 4, 4, 3, 3, 3, 3, 3, 5, 5, 5, 5, 5, 5, 5, 5, 5, 5, 4, 4, 4, 3, 3, 3, 2, 2, 3, 3, 3, 3, 2, 2, 1, 1, 1, 2, 1, 1, 1, 1, 1, 1, 1, 1, 1, 1, 1, 1, 1, 1, 1, 1, 1, 4, 4, 4, 3, 2, 2, 2, 1, 1, 3, 3, 3, 3, 2, 2, 2, 2, 2, 5, 4, 4, 3, 3, 2, 1, 1, 1, 2, 2, 2, 2, 2, 2, 2, 2, 2, 2, 1, 1, 1, 1, 1, 1, 1, 1, 1, 1, 1, 1, 1, 1, 1, 1, 1, 5, 4, 4, 4, 4, 4, 4, 4, 4, 3, 2, 2, 2, 2, 2, 2, 2, 2, 5, 4, 4, 4, 4, 4, 4, 4, 4, 4, 4, 3, 3, 3, 2, 1, 1, 1, 1, 1, 1, 1, 1, 1, 1, 1, 1, 4, 3, 3, 2, 2, 2, 1, 1, 1, 3, 2, 2, 2, 2, 2, 2, 2, 2, 4, 4, 4, 4, 3, 3, 3, 3, 3, 5, 4, 4, 3, 3, 2, 2, 1, 1, 2, 2, 2, 2, 2, 2, 2, 2, 2, 4, 4, 4, 4, 3, 3, 3, 3, 3, 3, 3, 3, 3, 3, 3, 3, 3, 3, 2, 1, 1, 1, 1, 1, 1, 1, 1, 4, 3, 3, 2, 2, 2, 2, 1, 1, 4, 4, 4, 4, 3, 3, 3, 2, 2, 3, 2, 2, 2, 2, 1, 1, 1, 1, 2, 2, 2, 2, 2, 2, 2, 2, 2, 5, 5, 5, 5, 5, 5, 5, 5, 5, 2, 2, 2, 2, 2, 2, 2, 2, 2, 3, 3, 3, 3, 2, 2, 2, 1, 1, 2, 2, 2, 2, 2, 2, 2, 2, 2, 2, 2, 2, 2, 2, 2, 2, 2, 2, 3, 3, 3, 3, 3, 2, 2, 2, 2, 3, 3, 3, 3, 3, 2, 2, 2, 2, 4, 4, 4, 3, 3, 2, 1, 1, 1, 1, 1, 1, 1, 1, 1, 1, 1, 1, 3, 3, 3, 3, 3, 3, 3, 3, 3, 3, 3, 3, 3, 3, 3, 3, 3, 3, 3, 2, 2, 2, 2, 1, 1, 1, 1, 5, 4, 3, 3, 2, 2, 2, 1, 1, 3, 2, 2, 2, 2, 1, 1, 1, 1, 5, 4, 3, 3, 2, 2, 1, 1, 1, 5, 4, 3, 3, 2, 2, 2, 1, 1, 2, 2, 2, 2, 1, 1, 1, 1, 1, 4, 4, 4, 4, 4, 4, 4, 4, 4, 3, 3, 3, 3, 3, 2, 2, 2, 2, 4, 4, 4, 4, 4, 4, 4, 4, 4, 5, 4, 3, 3, 3, 2, 1, 1, 1, 3, 3, 3, 3, 3, 3, 3, 3, 3, 2, 1, 1, 1, 1, 1, 1, 1, 1, 1, 1, 1, 1, 1, 1, 1, 1, 1, 5, 5, 5, 5, 5, 5, 5, 5, 5, 4, 4, 4, 4, 4, 4, 4, 4, 4, 2, 1, 1, 1, 1, 1, 1, 1, 1, 4, 3, 3, 3, 3, 3, 3, 3, 3, 5, 4, 4, 4, 4, 4, 4, 4, 4, 1, 1, 1, 1, 1, 1, 1, 1, 1, 2, 1, 1, 1, 1, 1, 1, 1, 1, 2, 2, 2, 2, 2, 2, 2, 2, 2, 5, 4, 4, 4, 4, 4, 4, 4, 4, 3, 3, 3, 3, 3, 2, 2, 2, 2, 2, 2, 2, 2, 2, 2, 2, 2, 2, 3, 3, 3, 3, 3, 3, 3, 3, 3, 4, 3, 3, 3, 3, 2, 2, 2, 2, 2, 2, 2, 2, 2, 2, 2, 2, 2, 2, 1, 1, 1, 1, 1, 1, 1, 1, 4, 3, 3, 3, 3, 3, 3, 3, 3, 5, 4, 4, 3, 3, 2, 1, 1, 1, 3, 3, 3, 3, 2, 2, 2, 2, 2, 2, 2, 2, 2, 2, 2, 2, 2, 2, 3, 3, 3, 3, 2, 2, 2, 2, 2, 5, 5, 5, 5, 5, 5, 5, 5, 5, 4, 4, 4, 4, 4, 4, 4, 4, 4
 |2, 2, 2, 2, 2, 2, 2, 2, 2, 11, 10, 10, 10, 9, 9, 9, 9, 9, 11, 10, 10, 10, 10, 10, 10, 10, 10, 17, 16, 15, 13, 13, 11, 11, 9, 9, 16, 15, 15, 15, 15, 15, 15, 15, 15, 6, 5, 5, 5, 3, 3, 3, 1, 1, 24, 21, 19, 18, 16, 16, 14, 12, 12, 27, 25, 25, 24, 24, 23, 22, 21, 21, 22, 22, 18, 15, 15, 10, 10, 5, 4, 12, 11, 10, 9, 8, 8, 8, 6, 6, 22, 22, 21, 20, 20, 20, 19, 18, 18, 29, 27, 26, 26, 25, 25, 24, 23, 22, 19, 15, 13, 11, 11, 7, 6, 3, 2, 17, 17, 15, 15, 14, 14, 13, 11, 11, 16, 12, 12, 11, 9, 8, 5, 3, 3, 30, 27, 25, 25, 22, 22, 21, 18, 18, 10, 9, 8, 7, 5, 4, 3, 2, 2, 17, 16, 16, 14, 13, 12, 10, 10, 8, 25, 24, 22, 20, 19, 16, 13, 12, 11, 29, 24, 22, 20, 16, 14, 8, 8, 4, 26, 25, 25, 24, 24, 24, 24, 23, 23, 21, 20, 19, 18, 17, 17, 15, 15, 14, 10, 10, 10, 9, 9, 8, 7, 7, 7, 28, 25, 22, 21, 18, 15, 14, 10, 8, 27, 24, 21, 20, 17, 17, 14, 12, 9, 30, 25, 24, 22, 19, 17, 17, 15, 13, 20, 19, 19, 19, 18, 18, 18, 18, 18, 19, 18, 17, 17, 16, 15, 15, 14, 14, 28, 27, 26, 25, 23, 22, 21, 21, 20, 18, 17, 15, 15, 14, 13, 11, 11, 10, 12, 12, 11, 10, 10, 10, 9, 8, 8, 18, 17, 17, 16, 15, 15, 15, 14, 14, 24, 24, 22, 20, 16, 16, 14, 12, 10, 23, 21, 20, 18, 14, 11, 10, 7, 6, 17, 16, 15, 12, 11, 7, 5, 3, 3, 22, 21, 20, 19, 18, 18, 18, 16, 16, 22, 21, 20, 18, 16, 14, 13, 12, 11, 25, 21, 19, 18, 13, 11, 10, 9, 7, 25, 22, 20, 17, 14, 14, 9, 8, 4, 29, 28, 27, 26, 26, 26, 24, 24, 23, 11, 10, 10, 9, 9, 8, 7, 7, 7, 22, 21, 20, 20, 17, 17, 15, 13, 13, 14, 12, 11, 10, 8, 6, 6, 4, 3, 30, 26, 22, 22, 19, 16, 13, 11, 9, 10, 9, 7, 6, 6, 5, 5, 3, 3, 30, 24, 23, 22, 18, 14, 14, 10, 6, 9, 8, 8, 8, 7, 6, 5, 4, 4, 18, 18, 16, 14, 13, 12, 10, 9, 6, 10, 10, 8, 7, 7, 6, 5, 3, 3, 7, 7, 6, 5, 5, 4, 4, 4, 3, 4, 4, 4, 4, 4, 4, 4, 4, 4, 7, 6, 5, 5, 4, 4, 3, 3, 3, 19, 19, 18, 16, 15, 13, 13, 11, 10, 9, 8, 7, 7, 6, 5, 4, 3, 1, 24, 23, 23, 22, 21, 21, 20, 20, 20, 7, 6, 5, 5, 4, 4, 4, 3, 3, 22, 19, 17, 15, 12, 10, 9, 5, 3, 30, 26, 26, 22, 20, 19, 18, 16, 14, 25, 23, 21, 20, 19, 18, 17, 16, 15, 18, 16, 14, 11, 9, 7, 7, 5, 3, 12, 12, 11, 11, 11, 10, 9, 9, 9, 18, 15, 14, 12, 11, 10, 8, 5, 3, 18, 18, 18, 18, 17, 17, 17, 17, 17, 9, 9, 9, 9, 8, 8, 7, 7, 7, 17, 16, 15, 15, 14, 13, 12, 12, 11, 9, 8, 7, 7, 6, 6, 5, 3, 3, 27, 24, 22, 18, 17, 13, 10, 7, 5, 29, 26, 24, 22, 21, 18, 18, 15, 13, 16, 16, 15, 15, 13, 13, 13, 11, 11, 18, 17, 17, 17, 17, 16, 16, 16, 16, 22, 21, 20, 20, 20, 19, 19, 18, 18, 24, 23, 22, 20, 15, 14, 13, 9, 7, 13, 13, 12, 12, 11, 11, 10, 9, 9, 28, 28, 27, 26, 25, 25, 24, 23, 23, 7, 7, 7, 6, 6, 5, 5, 4, 4, 26, 23, 22, 20, 19, 17, 17, 15, 13, 13, 12, 12, 11, 11, 11, 10, 10, 10, 13, 13, 12, 11, 11, 10, 10, 8, 8, 19, 18, 17, 15, 14, 13, 13, 12, 10, 20, 19, 18, 17, 17, 16, 16, 16, 15, 10, 10, 10, 9, 9, 9, 8, 8, 8, 23, 22, 22, 21, 20, 19, 18, 16, 16, 18, 17, 16, 15, 15, 14, 14, 13, 12, 8, 8, 8, 8, 8, 8, 8, 8, 8, 22, 19, 19, 16, 16, 14, 12, 10, 9, 19, 19, 16, 16, 12, 12, 10, 8, 6, 30, 29, 29, 29, 28, 28, 28, 27, 27, 17, 15, 13, 11, 8, 7, 6, 2, 1, 18, 17, 17, 16, 16, 16, 16, 15, 15, 20, 18, 17, 14, 13, 13, 12, 10, 8, 4, 3, 3, 3, 2, 2, 2, 2, 2, 17, 14, 13, 13, 12, 11, 10, 9, 8, 8, 6, 6, 6, 5, 4, 4, 4, 3, 28, 26, 24, 24, 22, 20, 19, 16, 14, 27, 24, 21, 20, 18, 17, 15, 12, 11, 23, 22, 20, 18, 15, 11, 10, 7, 6, 10, 10, 10, 10, 9, 9, 9, 8, 8, 18, 17, 13, 11, 10, 10, 7, 6, 3, 22, 21, 20, 18, 16, 16, 14, 13, 12, 16, 14, 12, 12, 9, 9, 8, 6, 5
 |24, 24, 21, 19, 16, 13, 10, 6, 3, 27, 26, 24, 23, 23, 23, 21, 21, 20, 25, 22, 20, 19, 15, 15, 13, 10, 7, 11, 9, 7, 6, 5, 5, 3, 2, 2, 11, 11, 11, 11, 11, 11, 11, 11, 11, 22, 22, 21, 20, 18, 16, 14, 13, 13, 27, 27, 25, 25, 23, 22, 21, 18, 17, 26, 26, 25, 23, 23, 22, 20, 20, 18, 21, 18, 17, 14, 14, 11, 11, 9, 8, 28, 25, 23, 23, 21, 19, 17, 16, 16, 20, 18, 17, 15, 15, 13, 13, 10, 9, 28, 28, 24, 23, 21, 19, 18, 16, 12, 17, 15, 15, 14, 12, 11, 9, 7, 7, 17, 15, 12, 12, 9, 7, 7, 5, 3, 18, 18, 15, 14, 12, 8, 8, 6, 3, 15, 14, 11, 11, 9, 8, 7, 5, 3, 20, 18, 16, 15, 12, 11, 10, 9, 6, 18, 16, 15, 12, 11, 9, 6, 6, 3, 23, 22, 21, 20, 19, 18, 17, 16, 15, 21, 20, 19, 17, 16, 16, 14, 13, 13, 16, 14, 14, 13, 10, 10, 9, 7, 6, 24, 24, 23, 21, 19, 19, 16, 16, 15, 4, 4, 4, 4, 3, 3, 2, 2, 2, 22, 19, 18, 17, 15, 14, 13, 11, 10, 20, 19, 19, 19, 19, 18, 18, 18, 18, 21, 20, 18, 17, 17, 15, 14, 14, 12, 13, 12, 11, 10, 8, 7, 6, 6, 5, 7, 7, 7, 7, 6, 6, 6, 6, 6, 15, 12, 12, 10, 9, 9, 7, 7, 5, 19, 19, 18, 16, 16, 14, 13, 13, 12, 30, 27, 24, 24, 20, 20, 17, 16, 13, 26, 26, 26, 25, 25, 25, 25, 24, 24, 17, 17, 17, 17, 17, 16, 16, 16, 16, 27, 25, 25, 22, 22, 20, 19, 16, 16, 23, 22, 20, 17, 15, 13, 11, 11, 8, 8, 6, 6, 5, 4, 4, 4, 2, 2, 22, 22, 22, 21, 21, 20, 19, 19, 19, 25, 24, 23, 22, 21, 18, 16, 16, 14, 26, 23, 21, 17, 15, 12, 12, 9, 7, 19, 19, 18, 17, 17, 16, 16, 16, 15, 19, 18, 18, 18, 17, 17, 17, 17, 17, 25, 22, 21, 19, 18, 17, 15, 14, 13, 21, 18, 17, 14, 13, 12, 9, 8, 6, 13, 13, 12, 12, 11, 11, 10, 9, 9, 15, 14, 12, 12, 11, 9, 7, 6, 4, 25, 24, 24, 24, 23, 22, 22, 21, 21, 17, 15, 14, 13, 11, 8, 5, 3, 2, 20, 19, 19, 18, 17, 17, 16, 16, 15, 4, 4, 4, 3, 3, 3, 2, 2, 2, 20, 18, 16, 15, 12, 12, 9, 8, 6, 22, 21, 21, 21, 20, 20, 19, 19, 19, 28, 28, 27, 27, 26, 26, 25, 25, 24, 15, 14, 14, 13, 13, 13, 12, 12, 11, 25, 24, 23, 22, 22, 21, 21, 21, 20, 9, 8, 7, 6, 4, 4, 3, 1, 1, 12, 11, 10, 9, 8, 7, 5, 3, 3, 16, 15, 15, 14, 13, 13, 11, 11, 10, 20, 20, 19, 19, 18, 17, 16, 15, 15, 26, 23, 20, 18, 14, 13, 10, 8, 6, 22, 22, 20, 19, 18, 17, 16, 16, 15, 19, 17, 16, 15, 14, 11, 10, 10, 7, 27, 24, 21, 21, 19, 16, 15, 13, 11, 19, 15, 14, 12, 11, 11, 9, 8, 5, 15, 15, 13, 12, 12, 10, 9, 8, 8, 13, 12, 12, 11, 11, 10, 9, 8, 8, 16, 13, 11, 9, 8, 6, 4, 4, 1, 22, 21, 21, 21, 21, 21, 21, 21, 21, 17, 17, 14, 11, 9, 9, 6, 3, 1, 13, 13, 13, 12, 11, 11, 10, 10, 10, 21, 18, 18, 17, 16, 14, 13, 11, 11, 26, 25, 24, 22, 21, 20, 19, 18, 18, 19, 17, 15, 13, 12, 12, 9, 7, 6, 18, 15, 14, 14, 12, 10, 8, 6, 4, 26, 25, 24, 23, 22, 20, 20, 18, 17, 22, 21, 20, 20, 20, 19, 18, 18, 18, 12, 11, 10, 9, 9, 8, 8, 6, 6, 16, 16, 15, 15, 14, 14, 13, 13, 13, 12, 12, 10, 10, 7, 7, 6, 5, 3, 23, 23, 23, 23, 22, 22, 22, 22, 22, 20, 19, 17, 16, 14, 12, 10, 6, 5, 11, 11, 11, 11, 11, 11, 11, 11, 11, 7, 6, 6, 6, 6, 6, 6, 6, 6, 29, 28, 28, 27, 27, 27, 26, 26, 26, 15, 15, 13, 12, 12, 11, 11, 10, 9, 17, 16, 15, 12, 9, 8, 7, 4, 2, 24, 24, 22, 17, 16, 13, 13, 8, 8, 25, 25, 22, 21, 19, 16, 14, 12, 11, 26, 25, 24, 22, 21, 21, 19, 19, 17, 19, 18, 18, 17, 17, 16, 16, 15, 15, 17, 17, 17, 17, 17, 17, 17, 17, 17, 20, 18, 16, 15, 12, 10, 10, 6, 6, 28, 28, 28, 27, 27, 27, 27, 26, 26, 15, 14, 14, 14, 14, 14, 14, 14, 14, 25, 20, 20, 17, 15, 12, 10, 10, 8, 19, 18, 16, 16, 15, 13, 12, 12, 10, 17, 16, 15, 13, 13, 13, 12, 11, 10, 19, 18, 17, 17, 15, 15, 15, 14, 13, 28, 28, 28, 28, 28, 28, 28, 28, 28, 13, 12, 10, 10, 8, 7, 4, 4, 1, 30, 28, 27, 26, 26, 24, 23, 22, 22
 |25, 22, 19, 18, 16, 15, 14, 12, 10, 20, 19, 18, 17, 17, 16, 16, 16, 15, 23, 22, 20, 20, 17, 17, 16, 13, 12, 27, 27, 24, 22, 21, 21, 18, 17, 16, 17, 15, 14, 14, 12, 10, 9, 7, 6, 24, 22, 21, 21, 19, 17, 16, 15, 14, 22, 20, 19, 18, 16, 14, 13, 11, 9, 14, 13, 13, 12, 11, 11, 10, 9, 8, 12, 11, 11, 9, 9, 7, 7, 5, 4, 30, 30, 30, 30, 30, 30, 30, 30, 30, 13, 10, 9, 7, 7, 6, 5, 3, 1, 30, 29, 28, 26, 26, 26, 24, 24, 23, 14, 11, 11, 9, 8, 7, 5, 3, 2, 27, 27, 26, 26, 25, 25, 24, 24, 24, 28, 27, 25, 23, 23, 20, 20, 17, 16, 25, 22, 21, 20, 18, 16, 16, 13, 13, 25, 25, 25, 25, 24, 24, 24, 24, 24, 24, 23, 21, 20, 17, 16, 14, 13, 11, 28, 23, 19, 17, 16, 13, 10, 7, 4, 20, 20, 20, 20, 20, 19, 19, 19, 19, 19, 19, 18, 17, 17, 17, 16, 15, 15, 13, 12, 11, 8, 6, 6, 3, 3, 1, 11, 11, 11, 11, 11, 10, 10, 10, 10, 14, 13, 12, 11, 11, 11, 9, 9, 8, 24, 24, 23, 21, 19, 19, 17, 15, 15, 6, 5, 5, 4, 3, 3, 2, 2, 2, 19, 16, 15, 12, 10, 10, 8, 5, 4, 7, 6, 6, 6, 5, 5, 5, 5, 5, 30, 26, 23, 22, 18, 16, 14, 9, 7, 26, 22, 20, 17, 15, 12, 7, 4, 1, 27, 25, 25, 23, 23, 22, 20, 20, 19, 12, 11, 11, 11, 10, 9, 9, 8, 8, 3, 3, 3, 3, 3, 3, 3, 3, 3, 20, 19, 18, 18, 17, 17, 17, 16, 16, 11, 11, 10, 9, 8, 8, 7, 6, 6, 8, 8, 8, 8, 7, 7, 7, 6, 6, 29, 26, 25, 25, 24, 22, 22, 21, 20, 16, 15, 14, 14, 13, 13, 12, 12, 12, 17, 14, 14, 12, 12, 9, 8, 8, 7, 29, 27, 25, 25, 23, 23, 21, 21, 19, 29, 29, 27, 26, 26, 26, 25, 23, 23, 10, 10, 9, 9, 8, 8, 7, 7, 7, 26, 24, 19, 16, 14, 12, 7, 7, 3, 21, 21, 21, 21, 21, 21, 21, 21, 21, 20, 20, 20, 20, 19, 19, 19, 19, 19, 12, 9, 9, 7, 7, 5, 5, 4, 2, 26, 24, 24, 23, 22, 21, 21, 20, 19, 17, 16, 15, 13, 13, 11, 11, 9, 9, 29, 27, 27, 26, 26, 25, 25, 24, 23, 26, 26, 26, 26, 25, 25, 24, 24, 24, 5, 4, 4, 4, 4, 4, 4, 4, 4, 20, 18, 15, 14, 12, 12, 10, 8, 7, 1, 1, 1, 1, 1, 1, 1, 1, 1, 23, 21, 19, 17, 16, 16, 14, 12, 12, 25, 23, 21, 20, 19, 18, 15, 14, 13, 25, 22, 21, 19, 18, 18, 15, 15, 13, 23, 22, 21, 20, 20, 19, 18, 16, 16, 13, 11, 10, 9, 7, 6, 4, 3, 3, 29, 28, 26, 26, 24, 24, 22, 22, 21, 28, 26, 22, 21, 20, 16, 14, 13, 10, 20, 20, 18, 17, 17, 15, 14, 14, 13, 29, 24, 22, 19, 15, 13, 10, 7, 5, 21, 16, 15, 13, 11, 7, 7, 3, 2, 29, 27, 27, 25, 24, 23, 21, 20, 19, 10, 10, 10, 9, 9, 9, 8, 8, 8, 11, 10, 10, 10, 9, 9, 9, 8, 8, 26, 23, 22, 21, 18, 16, 15, 12, 12, 6, 5, 5, 5, 4, 4, 4, 3, 3, 18, 17, 15, 14, 14, 12, 10, 9, 8, 25, 24, 21, 21, 19, 17, 14, 12, 11, 13, 12, 12, 12, 12, 12, 12, 12, 12, 7, 6, 6, 5, 5, 4, 4, 4, 3, 25, 24, 22, 22, 20, 20, 18, 18, 17, 9, 8, 7, 6, 6, 6, 5, 3, 3, 22, 21, 19, 19, 16, 16, 15, 13, 12, 26, 22, 21, 19, 18, 16, 14, 12, 10, 19, 18, 17, 16, 16, 16, 15, 14, 14, 17, 17, 17, 17, 17, 17, 17, 17, 17, 23, 21, 18, 17, 16, 14, 14, 11, 11, 28, 27, 27, 27, 26, 25, 24, 23, 23, 19, 18, 16, 14, 11, 9, 8, 6, 5, 22, 20, 18, 17, 16, 12, 10, 8, 8, 23, 22, 22, 22, 22, 21, 21, 21, 21, 28, 25, 25, 22, 22, 19, 19, 16, 15, 24, 22, 20, 17, 16, 14, 11, 9, 8, 13, 12, 12, 11, 11, 11, 10, 10, 9, 22, 21, 20, 20, 17, 17, 14, 14, 13, 26, 25, 22, 20, 15, 12, 12, 7, 6, 29, 23, 21, 18, 16, 15, 9, 8, 6, 13, 13, 13, 13, 12, 12, 12, 11, 11, 25, 23, 23, 19, 18, 14, 11, 9, 8, 27, 22, 20, 18, 13, 12, 8, 5, 4, 26, 25, 25, 25, 25, 25, 25, 25, 25, 17, 15, 13, 13, 10, 9, 7, 6, 5, 27, 25, 25, 23, 20, 19, 16, 15, 13, 3, 3, 3, 2, 2, 2, 2, 1, 1, 9, 9, 8, 8, 7, 7, 7, 6, 6, 22, 21, 20, 17, 16, 16, 13, 13, 11, 22, 22, 22, 22, 21, 21, 20, 20, 20, 13, 12, 11, 10, 9, 8, 7, 5, 5
 |29, 25, 21, 19, 15, 13, 10, 9, 5, 28, 27, 27, 27, 27, 27, 27, 27, 27, 26, 25, 23, 21, 20, 19, 17, 15, 15, 20, 18, 15, 12, 12, 8, 5, 5, 2, 25, 23, 22, 19, 17, 16, 15, 13, 10, 26, 25, 25, 24, 24, 23, 23, 22, 22, 29, 26, 25, 25, 23, 22, 19, 19, 16, 14, 13, 11, 10, 10, 9, 8, 6, 6, 20, 19, 18, 18, 17, 15, 14, 13, 13, 12, 9, 9, 7, 7, 6, 5, 3, 2, 26, 26, 25, 25, 25, 24, 24, 23, 23, 17, 17, 16, 15, 14, 13, 12, 11, 10, 17, 15, 15, 13, 13, 13, 11, 10, 10, 21, 19, 19, 17, 17, 17, 15, 14, 14, 17, 17, 17, 17, 17, 17, 17, 17, 17, 9, 7, 7, 6, 5, 4, 3, 2, 1, 22, 22, 22, 22, 21, 21, 21, 21, 21, 29, 27, 26, 23, 22, 20, 19, 19, 16, 24, 21, 19, 19, 15, 13, 11, 10, 7, 15, 15, 14, 12, 11, 10, 10, 9, 7, 26, 25, 22, 20, 18, 15, 13, 12, 10, 17, 15, 12, 10, 9, 8, 5, 3, 2, 25, 24, 23, 22, 21, 20, 19, 17, 16, 9, 8, 7, 7, 6, 5, 5, 4, 4, 23, 23, 23, 22, 22, 21, 21, 20, 20, 25, 24, 23, 23, 23, 22, 22, 21, 21, 29, 25, 23, 19, 16, 12, 8, 6, 3, 27, 26, 25, 23, 20, 18, 17, 14, 11, 5, 5, 5, 5, 5, 5, 5, 5, 5, 30, 27, 23, 21, 17, 16, 13, 11, 7, 9, 7, 7, 7, 6, 5, 5, 4, 3, 2, 2, 2, 2, 2, 2, 2, 3, 2, 17, 16, 14, 13, 13, 12, 12, 11, 10, 25, 24, 23, 21, 21, 19, 18, 18, 17, 26, 26, 23, 21, 18, 16, 14, 13, 11, 23, 21, 21, 19, 17, 16, 15, 15, 14, 25, 23, 22, 22, 21, 20, 20, 19, 18, 17, 16, 16, 14, 14, 12, 11, 10, 10, 12, 10, 10, 10, 9, 8, 8, 8, 7, 15, 15, 14, 13, 12, 12, 10, 9, 9, 19, 19, 19, 19, 18, 18, 18, 17, 16, 18, 15, 14, 13, 11, 9, 8, 6, 4, 25, 25, 24, 23, 22, 22, 22, 21, 20, 13, 13, 11, 10, 9, 7, 7, 4, 4, 26, 22, 22, 18, 16, 13, 9, 7, 2, 20, 18, 16, 13, 11, 8, 7, 4, 3, 20, 19, 18, 17, 17, 16, 15, 14, 14, 22, 21, 21, 21, 19, 19, 18, 17, 17, 25, 24, 24, 24, 23, 22, 22, 21, 21, 15, 14, 12, 10, 9, 7, 5, 4, 4, 21, 20, 19, 20, 20, 19, 19, 19, 18, 13, 12, 11, 10, 7, 7, 5, 4, 4, 29, 24, 24, 19, 17, 15, 13, 11, 9, 17, 17, 17, 17, 17, 17, 17, 17, 17, 28, 25, 20, 20, 16, 15, 10, 9, 6, 17, 16, 16, 15, 14, 13, 12, 10, 10, 29, 28, 26, 24, 23, 20, 19, 17, 16, 4, 4, 4, 4, 4, 4, 4, 4, 4, 25, 23, 22, 20, 20, 18, 17, 17, 15, 25, 23, 23, 20, 20, 19, 18, 16, 15, 26, 26, 24, 23, 19, 19, 17, 14, 14, 27, 26, 23, 23, 20, 18, 16, 12, 11, 24, 22, 20, 20, 17, 16, 16, 15, 13, 14, 13, 13, 12, 10, 9, 9, 8, 7, 8, 8, 7, 7, 5, 5, 4, 3, 3, 23, 23, 22, 22, 21, 21, 20, 20, 20, 14, 12, 12, 11, 11, 11, 10, 10, 9, 24, 22, 21, 20, 20, 18, 17, 16, 16, 28, 28, 26, 25, 24, 22, 19, 18, 17, 18, 16, 14, 12, 10, 10, 7, 6, 4, 12, 12, 12, 11, 10, 10, 9, 10, 9, 5, 4, 4, 4, 4, 3, 3, 3, 3, 20, 17, 15, 15, 13, 9, 8, 7, 5, 3, 2, 2, 2, 2, 2, 2, 2, 2, 18, 18, 17, 15, 14, 14, 12, 11, 11, 16, 15, 13, 12, 12, 12, 11, 9, 9, 29, 26, 23, 20, 18, 13, 11, 11, 6, 22, 22, 20, 20, 18, 17, 17, 16, 14, 26, 23, 22, 21, 19, 18, 17, 16, 15, 21, 17, 17, 13, 12, 9, 8, 6, 4, 24, 24, 24, 23, 23, 22, 21, 21, 21, 22, 21, 21, 21, 21, 20, 20, 20, 19, 28, 26, 24, 19, 19, 17, 13, 12, 9, 27, 27, 27, 27, 26, 27, 26, 27, 27, 26, 22, 22, 21, 17, 16, 16, 12, 11, 26, 24, 22, 20, 14, 14, 9, 7, 4, 20, 19, 17, 17, 15, 14, 13, 13, 11, 26, 25, 25, 25, 25, 24, 24, 24, 24, 16, 15, 14, 13, 12, 11, 10, 8, 8, 29, 26, 24, 22, 22, 19, 17, 17, 14, 15, 15, 13, 13, 12, 11, 10, 8, 8, 15, 14, 12, 12, 11, 10, 9, 7, 7, 29, 27, 25, 21, 19, 18, 14, 14, 12, 19, 19, 18, 16, 15, 14, 14, 13, 12, 21, 20, 17, 17, 14, 10, 9, 7, 6, 13, 12, 10, 9, 9, 8, 8, 6, 6, 29, 26, 26, 24, 22, 20, 20, 18, 16, 27, 25, 23, 22, 19, 18, 17, 16, 14, 27, 26, 25, 24, 22, 22, 19, 18, 17, 29, 24, 23, 19, 15, 13, 8, 5, 3|];